p tw 144 26641 2 
1 73 
1 76 
1 77 
1 80 
1 81 
1 84 
1 85 
1 87 
1 89 
1 92 
1 94 
1 96 
1 97 
1 99 
1 102 
1 103 
1 106 
1 107 
1 110 
1 111 
1 113 
1 115 
1 118 
1 119 
1 122 
1 123 
1 125 
1 128 
1 129 
1 132 
1 133 
1 136 
1 138 
1 140 
1 141 
1 144 
2 74 
2 75 
2 78 
2 79 
2 82 
2 83 
2 86 
2 88 
2 90 
2 91 
2 93 
2 95 
2 98 
2 100 
2 101 
2 104 
2 105 
2 108 
2 109 
2 112 
2 114 
2 116 
2 117 
2 120 
2 121 
2 124 
2 126 
2 127 
2 130 
2 131 
2 134 
2 135 
2 137 
2 139 
2 142 
2 143 
3 4 
3 73 
3 76 
3 77 
3 80 
3 82 
3 83 
3 85 
3 88 
3 89 
3 92 
3 93 
3 96 
3 98 
3 99 
3 102 
3 103 
3 106 
3 107 
3 110 
3 112 
3 114 
3 116 
3 117 
3 120 
3 121 
3 124 
3 125 
3 127 
3 129 
3 131 
3 134 
3 136 
3 138 
3 139 
3 142 
3 143 
4 74 
4 75 
4 78 
4 79 
4 81 
4 84 
4 86 
4 87 
4 90 
4 91 
4 94 
4 95 
4 97 
4 100 
4 101 
4 104 
4 105 
4 108 
4 109 
4 111 
4 113 
4 115 
4 118 
4 119 
4 122 
4 123 
4 126 
4 128 
4 130 
4 132 
4 133 
4 135 
4 137 
4 140 
4 141 
4 144 
5 6 
5 74 
5 76 
5 77 
5 79 
5 81 
5 83 
5 86 
5 88 
5 89 
5 92 
5 93 
5 96 
5 97 
5 99 
5 101 
5 103 
5 105 
5 107 
5 109 
5 111 
5 114 
5 115 
5 118 
5 120 
5 122 
5 123 
5 126 
5 127 
5 129 
5 131 
5 133 
5 135 
5 137 
5 139 
5 141 
5 143 
6 73 
6 75 
6 78 
6 80 
6 82 
6 84 
6 85 
6 87 
6 90 
6 91 
6 94 
6 95 
6 98 
6 100 
6 102 
6 104 
6 106 
6 108 
6 110 
6 112 
6 113 
6 116 
6 117 
6 119 
6 121 
6 124 
6 125 
6 128 
6 130 
6 132 
6 134 
6 136 
6 138 
6 140 
6 142 
6 144 
7 8 
7 74 
7 76 
7 77 
7 79 
7 82 
7 83 
7 86 
7 87 
7 90 
7 91 
7 94 
7 96 
7 97 
7 99 
7 102 
7 103 
7 106 
7 108 
7 110 
7 111 
7 114 
7 115 
7 117 
7 119 
7 121 
7 124 
7 126 
7 128 
7 130 
7 131 
7 133 
7 136 
7 137 
7 139 
7 142 
7 144 
8 73 
8 75 
8 78 
8 80 
8 81 
8 84 
8 85 
8 88 
8 89 
8 92 
8 93 
8 95 
8 98 
8 100 
8 101 
8 104 
8 105 
8 107 
8 109 
8 112 
8 113 
8 116 
8 118 
8 120 
8 122 
8 123 
8 125 
8 127 
8 129 
8 132 
8 134 
8 135 
8 138 
8 140 
8 141 
8 143 
9 10 
9 74 
9 75 
9 78 
9 80 
9 82 
9 84 
9 86 
9 88 
9 89 
9 91 
9 94 
9 96 
9 98 
9 99 
9 101 
9 103 
9 106 
9 108 
9 109 
9 112 
9 114 
9 115 
9 118 
9 119 
9 121 
9 123 
9 125 
9 127 
9 129 
9 131 
9 133 
9 135 
9 138 
9 140 
9 142 
9 144 
10 73 
10 76 
10 77 
10 79 
10 81 
10 83 
10 85 
10 87 
10 90 
10 92 
10 93 
10 95 
10 97 
10 100 
10 102 
10 104 
10 105 
10 107 
10 110 
10 111 
10 113 
10 116 
10 117 
10 120 
10 122 
10 124 
10 126 
10 128 
10 130 
10 132 
10 134 
10 136 
10 137 
10 139 
10 141 
10 143 
11 12 
11 74 
11 76 
11 78 
11 80 
11 82 
11 84 
11 86 
11 88 
11 90 
11 92 
11 94 
11 96 
11 97 
11 99 
11 101 
11 104 
11 106 
11 108 
11 110 
11 112 
11 113 
11 116 
11 118 
11 120 
11 122 
11 124 
11 126 
11 128 
11 129 
11 131 
11 134 
11 136 
11 137 
11 140 
11 141 
11 143 
12 73 
12 75 
12 77 
12 79 
12 81 
12 83 
12 85 
12 87 
12 89 
12 91 
12 93 
12 95 
12 98 
12 100 
12 102 
12 103 
12 105 
12 107 
12 109 
12 111 
12 114 
12 115 
12 117 
12 119 
12 121 
12 123 
12 125 
12 127 
12 130 
12 132 
12 133 
12 135 
12 138 
12 139 
12 142 
12 144 
13 14 
13 74 
13 76 
13 78 
13 79 
13 81 
13 84 
13 85 
13 88 
13 89 
13 91 
13 94 
13 96 
13 98 
13 100 
13 102 
13 104 
13 105 
13 107 
13 110 
13 111 
13 114 
13 115 
13 117 
13 119 
13 121 
13 124 
13 126 
13 128 
13 129 
13 131 
13 134 
13 135 
13 138 
13 140 
13 141 
13 143 
14 73 
14 75 
14 77 
14 80 
14 82 
14 83 
14 86 
14 87 
14 90 
14 92 
14 93 
14 95 
14 97 
14 99 
14 101 
14 103 
14 106 
14 108 
14 109 
14 112 
14 113 
14 116 
14 118 
14 120 
14 122 
14 123 
14 125 
14 127 
14 130 
14 132 
14 133 
14 136 
14 137 
14 139 
14 142 
14 144 
15 16 
15 73 
15 76 
15 78 
15 79 
15 82 
15 84 
15 85 
15 87 
15 90 
15 92 
15 94 
15 95 
15 97 
15 100 
15 101 
15 103 
15 105 
15 108 
15 110 
15 112 
15 114 
15 115 
15 117 
15 120 
15 122 
15 124 
15 125 
15 127 
15 129 
15 131 
15 133 
15 135 
15 138 
15 139 
15 141 
15 144 
16 74 
16 75 
16 77 
16 80 
16 81 
16 83 
16 86 
16 88 
16 89 
16 91 
16 93 
16 96 
16 98 
16 99 
16 102 
16 104 
16 106 
16 107 
16 109 
16 111 
16 113 
16 116 
16 118 
16 119 
16 121 
16 123 
16 126 
16 128 
16 130 
16 132 
16 134 
16 136 
16 137 
16 140 
16 142 
16 143 
17 18 
17 73 
17 76 
17 77 
17 80 
17 81 
17 84 
17 86 
17 87 
17 89 
17 91 
17 94 
17 96 
17 97 
17 100 
17 101 
17 103 
17 105 
17 107 
17 110 
17 112 
17 113 
17 116 
17 117 
17 120 
17 121 
17 123 
17 126 
17 127 
17 130 
17 131 
17 134 
17 135 
17 137 
17 140 
17 142 
17 144 
18 74 
18 75 
18 78 
18 79 
18 82 
18 83 
18 85 
18 88 
18 90 
18 92 
18 93 
18 95 
18 98 
18 99 
18 102 
18 104 
18 106 
18 108 
18 109 
18 111 
18 114 
18 115 
18 118 
18 119 
18 122 
18 124 
18 125 
18 128 
18 129 
18 132 
18 133 
18 136 
18 138 
18 139 
18 141 
18 143 
19 20 
19 73 
19 75 
19 78 
19 79 
19 82 
19 83 
19 86 
19 87 
19 90 
19 91 
19 94 
19 95 
19 97 
19 99 
19 102 
19 103 
19 106 
19 107 
19 110 
19 111 
19 114 
19 116 
19 118 
19 120 
19 121 
19 123 
19 126 
19 127 
19 129 
19 132 
19 134 
19 135 
19 138 
19 140 
19 141 
19 143 
20 74 
20 76 
20 77 
20 80 
20 81 
20 84 
20 85 
20 88 
20 89 
20 92 
20 93 
20 96 
20 98 
20 100 
20 101 
20 104 
20 105 
20 108 
20 109 
20 112 
20 113 
20 115 
20 117 
20 119 
20 122 
20 124 
20 125 
20 128 
20 130 
20 131 
20 133 
20 136 
20 137 
20 139 
20 142 
20 144 
21 22 
21 73 
21 75 
21 77 
21 79 
21 82 
21 83 
21 85 
21 88 
21 90 
21 92 
21 94 
21 96 
21 98 
21 99 
21 101 
21 104 
21 105 
21 107 
21 110 
21 112 
21 113 
21 116 
21 118 
21 119 
21 121 
21 123 
21 126 
21 128 
21 130 
21 131 
21 133 
21 135 
21 138 
21 139 
21 141 
21 144 
22 74 
22 76 
22 78 
22 80 
22 81 
22 84 
22 86 
22 87 
22 89 
22 91 
22 93 
22 95 
22 97 
22 100 
22 102 
22 103 
22 106 
22 108 
22 109 
22 111 
22 114 
22 115 
22 117 
22 120 
22 122 
22 124 
22 125 
22 127 
22 129 
22 132 
22 134 
22 136 
22 137 
22 140 
22 142 
22 143 
23 24 
23 74 
23 75 
23 77 
23 79 
23 81 
23 83 
23 86 
23 87 
23 89 
23 92 
23 94 
23 96 
23 97 
23 100 
23 101 
23 104 
23 106 
23 108 
23 110 
23 112 
23 114 
23 116 
23 117 
23 119 
23 122 
23 123 
23 125 
23 128 
23 129 
23 132 
23 134 
23 135 
23 138 
23 139 
23 142 
23 143 
24 73 
24 76 
24 78 
24 80 
24 82 
24 84 
24 85 
24 88 
24 90 
24 91 
24 93 
24 95 
24 98 
24 99 
24 102 
24 103 
24 105 
24 107 
24 109 
24 111 
24 113 
24 115 
24 118 
24 120 
24 121 
24 124 
24 126 
24 127 
24 130 
24 131 
24 133 
24 136 
24 137 
24 140 
24 141 
24 144 
25 26 
25 73 
25 76 
25 78 
25 80 
25 81 
25 84 
25 86 
25 87 
25 90 
25 92 
25 93 
25 96 
25 98 
25 100 
25 102 
25 104 
25 106 
25 108 
25 110 
25 111 
25 114 
25 116 
25 118 
25 119 
25 121 
25 123 
25 125 
25 127 
25 130 
25 131 
25 133 
25 135 
25 137 
25 139 
25 141 
25 143 
26 74 
26 75 
26 77 
26 79 
26 82 
26 83 
26 85 
26 88 
26 89 
26 91 
26 94 
26 95 
26 97 
26 99 
26 101 
26 103 
26 105 
26 107 
26 109 
26 112 
26 113 
26 115 
26 117 
26 120 
26 122 
26 124 
26 126 
26 128 
26 129 
26 132 
26 134 
26 136 
26 138 
26 140 
26 142 
26 144 
27 28 
27 73 
27 76 
27 78 
27 79 
27 82 
27 83 
27 86 
27 88 
27 90 
27 92 
27 94 
27 96 
27 97 
27 100 
27 102 
27 104 
27 105 
27 107 
27 109 
27 112 
27 113 
27 115 
27 117 
27 119 
27 121 
27 123 
27 125 
27 127 
27 129 
27 132 
27 133 
27 136 
27 137 
27 140 
27 142 
27 143 
28 74 
28 75 
28 77 
28 80 
28 81 
28 84 
28 85 
28 87 
28 89 
28 91 
28 93 
28 95 
28 98 
28 99 
28 101 
28 103 
28 106 
28 108 
28 110 
28 111 
28 114 
28 116 
28 118 
28 120 
28 122 
28 124 
28 126 
28 128 
28 130 
28 131 
28 134 
28 135 
28 138 
28 139 
28 141 
28 144 
29 30 
29 73 
29 76 
29 78 
29 80 
29 81 
29 83 
29 85 
29 87 
29 89 
29 91 
29 94 
29 95 
29 98 
29 99 
29 101 
29 104 
29 105 
29 108 
29 110 
29 112 
29 114 
29 115 
29 118 
29 120 
29 121 
29 123 
29 126 
29 128 
29 129 
29 132 
29 133 
29 136 
29 137 
29 139 
29 142 
29 143 
30 74 
30 75 
30 77 
30 79 
30 82 
30 84 
30 86 
30 88 
30 90 
30 92 
30 93 
30 96 
30 97 
30 100 
30 102 
30 103 
30 106 
30 107 
30 109 
30 111 
30 113 
30 116 
30 117 
30 119 
30 122 
30 124 
30 125 
30 127 
30 130 
30 131 
30 134 
30 135 
30 138 
30 140 
30 141 
30 144 
31 32 
31 73 
31 75 
31 77 
31 79 
31 82 
31 84 
31 86 
31 87 
31 89 
31 92 
31 94 
31 95 
31 98 
31 99 
31 101 
31 104 
31 105 
31 107 
31 110 
31 111 
31 114 
31 115 
31 118 
31 119 
31 122 
31 124 
31 125 
31 127 
31 130 
31 131 
31 134 
31 136 
31 137 
31 140 
31 142 
31 143 
32 74 
32 76 
32 78 
32 80 
32 81 
32 83 
32 85 
32 88 
32 90 
32 91 
32 93 
32 96 
32 97 
32 100 
32 102 
32 103 
32 106 
32 108 
32 109 
32 112 
32 113 
32 116 
32 117 
32 120 
32 121 
32 123 
32 126 
32 128 
32 129 
32 132 
32 133 
32 135 
32 138 
32 139 
32 141 
32 144 
33 34 
33 73 
33 76 
33 77 
33 79 
33 81 
33 84 
33 85 
33 88 
33 90 
33 91 
33 94 
33 96 
33 97 
33 99 
33 101 
33 104 
33 106 
33 108 
33 109 
33 111 
33 113 
33 115 
33 118 
33 120 
33 121 
33 124 
33 125 
33 127 
33 130 
33 132 
33 134 
33 135 
33 138 
33 139 
33 142 
33 143 
34 74 
34 75 
34 78 
34 80 
34 82 
34 83 
34 86 
34 87 
34 89 
34 92 
34 93 
34 95 
34 98 
34 100 
34 102 
34 103 
34 105 
34 107 
34 110 
34 112 
34 114 
34 116 
34 117 
34 119 
34 122 
34 123 
34 126 
34 128 
34 129 
34 131 
34 133 
34 136 
34 137 
34 140 
34 141 
34 144 
35 36 
35 73 
35 75 
35 78 
35 79 
35 81 
35 83 
35 85 
35 88 
35 89 
35 92 
35 93 
35 96 
35 97 
35 100 
35 101 
35 103 
35 106 
35 108 
35 110 
35 112 
35 114 
35 115 
35 118 
35 119 
35 121 
35 124 
35 126 
35 127 
35 130 
35 132 
35 134 
35 136 
35 137 
35 140 
35 141 
35 144 
36 74 
36 76 
36 77 
36 80 
36 82 
36 84 
36 86 
36 87 
36 90 
36 91 
36 94 
36 95 
36 98 
36 99 
36 102 
36 104 
36 105 
36 107 
36 109 
36 111 
36 113 
36 116 
36 117 
36 120 
36 122 
36 123 
36 125 
36 128 
36 129 
36 131 
36 133 
36 135 
36 138 
36 139 
36 142 
36 143 
37 38 
37 73 
37 75 
37 78 
37 80 
37 81 
37 84 
37 85 
37 88 
37 90 
37 92 
37 94 
37 95 
37 97 
37 99 
37 102 
37 103 
37 106 
37 107 
37 109 
37 112 
37 114 
37 115 
37 117 
37 119 
37 122 
37 123 
37 126 
37 128 
37 130 
37 131 
37 134 
37 135 
37 137 
37 139 
37 142 
37 143 
38 74 
38 76 
38 77 
38 79 
38 82 
38 83 
38 86 
38 87 
38 89 
38 91 
38 93 
38 96 
38 98 
38 100 
38 101 
38 104 
38 105 
38 108 
38 110 
38 111 
38 113 
38 116 
38 118 
38 120 
38 121 
38 124 
38 125 
38 127 
38 129 
38 132 
38 133 
38 136 
38 138 
38 140 
38 141 
38 144 
39 40 
39 73 
39 75 
39 77 
39 80 
39 82 
39 84 
39 86 
39 87 
39 89 
39 92 
39 93 
39 96 
39 97 
39 99 
39 102 
39 104 
39 105 
39 108 
39 109 
39 112 
39 114 
39 115 
39 117 
39 120 
39 121 
39 124 
39 126 
39 128 
39 130 
39 132 
39 133 
39 135 
39 138 
39 140 
39 141 
39 143 
40 74 
40 76 
40 78 
40 79 
40 81 
40 83 
40 85 
40 88 
40 90 
40 91 
40 94 
40 95 
40 98 
40 100 
40 101 
40 103 
40 106 
40 107 
40 110 
40 111 
40 113 
40 116 
40 118 
40 119 
40 122 
40 123 
40 125 
40 127 
40 129 
40 131 
40 134 
40 136 
40 137 
40 139 
40 142 
40 144 
41 42 
41 73 
41 75 
41 78 
41 80 
41 82 
41 83 
41 86 
41 88 
41 89 
41 91 
41 94 
41 96 
41 98 
41 100 
41 101 
41 103 
41 106 
41 107 
41 110 
41 111 
41 113 
41 115 
41 117 
41 120 
41 122 
41 124 
41 125 
41 128 
41 130 
41 132 
41 133 
41 135 
41 137 
41 139 
41 141 
41 143 
42 74 
42 76 
42 77 
42 79 
42 81 
42 84 
42 85 
42 87 
42 90 
42 92 
42 93 
42 95 
42 97 
42 99 
42 102 
42 104 
42 105 
42 108 
42 109 
42 112 
42 114 
42 116 
42 118 
42 119 
42 121 
42 123 
42 126 
42 127 
42 129 
42 131 
42 134 
42 136 
42 138 
42 140 
42 142 
42 144 
43 44 
43 74 
43 75 
43 77 
43 79 
43 81 
43 84 
43 85 
43 88 
43 90 
43 91 
43 94 
43 96 
43 98 
43 99 
43 102 
43 103 
43 105 
43 108 
43 110 
43 112 
43 114 
43 116 
43 117 
43 120 
43 122 
43 123 
43 125 
43 127 
43 130 
43 132 
43 133 
43 136 
43 137 
43 140 
43 141 
43 143 
44 73 
44 76 
44 78 
44 80 
44 82 
44 83 
44 86 
44 87 
44 89 
44 92 
44 93 
44 95 
44 97 
44 100 
44 101 
44 104 
44 106 
44 107 
44 109 
44 111 
44 113 
44 115 
44 118 
44 119 
44 121 
44 124 
44 126 
44 128 
44 129 
44 131 
44 134 
44 135 
44 138 
44 139 
44 142 
44 144 
45 46 
45 74 
45 75 
45 77 
45 80 
45 82 
45 84 
45 85 
45 87 
45 90 
45 92 
45 94 
45 96 
45 98 
45 100 
45 101 
45 104 
45 106 
45 107 
45 109 
45 111 
45 114 
45 115 
45 117 
45 120 
45 121 
45 123 
45 126 
45 127 
45 129 
45 132 
45 134 
45 136 
45 137 
45 139 
45 141 
45 144 
46 73 
46 76 
46 78 
46 79 
46 81 
46 83 
46 86 
46 88 
46 89 
46 91 
46 93 
46 95 
46 97 
46 99 
46 102 
46 103 
46 105 
46 108 
46 110 
46 112 
46 113 
46 116 
46 118 
46 119 
46 122 
46 124 
46 125 
46 128 
46 130 
46 131 
46 133 
46 135 
46 138 
46 140 
46 142 
46 143 
47 48 
47 74 
47 76 
47 77 
47 80 
47 81 
47 83 
47 86 
47 88 
47 90 
47 92 
47 94 
47 95 
47 98 
47 100 
47 102 
47 104 
47 106 
47 107 
47 110 
47 112 
47 114 
47 115 
47 118 
47 120 
47 122 
47 124 
47 126 
47 127 
47 130 
47 132 
47 133 
47 135 
47 138 
47 140 
47 142 
47 144 
48 73 
48 75 
48 78 
48 79 
48 82 
48 84 
48 85 
48 87 
48 89 
48 91 
48 93 
48 96 
48 97 
48 99 
48 101 
48 103 
48 105 
48 108 
48 109 
48 111 
48 113 
48 116 
48 117 
48 119 
48 121 
48 123 
48 125 
48 128 
48 129 
48 131 
48 134 
48 136 
48 137 
48 139 
48 141 
48 143 
49 50 
49 74 
49 75 
49 78 
49 80 
49 81 
49 83 
49 85 
49 87 
49 90 
49 92 
49 94 
49 96 
49 97 
49 100 
49 101 
49 103 
49 105 
49 107 
49 109 
49 111 
49 114 
49 116 
49 118 
49 120 
49 121 
49 124 
49 125 
49 128 
49 130 
49 131 
49 133 
49 136 
49 138 
49 140 
49 142 
49 143 
50 73 
50 76 
50 77 
50 79 
50 82 
50 84 
50 86 
50 88 
50 89 
50 91 
50 93 
50 95 
50 98 
50 99 
50 102 
50 104 
50 106 
50 108 
50 110 
50 112 
50 113 
50 115 
50 117 
50 119 
50 122 
50 123 
50 126 
50 127 
50 129 
50 132 
50 134 
50 135 
50 137 
50 139 
50 141 
50 144 
51 52 
51 73 
51 75 
51 78 
51 79 
51 81 
51 83 
51 85 
51 87 
51 89 
51 92 
51 94 
51 96 
51 98 
51 99 
51 102 
51 104 
51 106 
51 108 
51 109 
51 111 
51 113 
51 116 
51 117 
51 120 
51 122 
51 124 
51 126 
51 127 
51 129 
51 131 
51 133 
51 135 
51 137 
51 140 
51 142 
51 144 
52 74 
52 76 
52 77 
52 80 
52 82 
52 84 
52 86 
52 88 
52 90 
52 91 
52 93 
52 95 
52 97 
52 100 
52 101 
52 103 
52 105 
52 107 
52 110 
52 112 
52 114 
52 115 
52 118 
52 119 
52 121 
52 123 
52 125 
52 128 
52 130 
52 132 
52 134 
52 136 
52 138 
52 139 
52 141 
52 143 
53 54 
53 73 
53 75 
53 77 
53 80 
53 82 
53 83 
53 85 
53 88 
53 90 
53 91 
53 93 
53 96 
53 97 
53 100 
53 102 
53 104 
53 105 
53 108 
53 110 
53 111 
53 114 
53 115 
53 118 
53 120 
53 122 
53 123 
53 125 
53 128 
53 129 
53 131 
53 134 
53 135 
53 137 
53 140 
53 142 
53 144 
54 74 
54 76 
54 78 
54 79 
54 81 
54 84 
54 86 
54 87 
54 89 
54 92 
54 94 
54 95 
54 98 
54 99 
54 101 
54 103 
54 106 
54 107 
54 109 
54 112 
54 113 
54 116 
54 117 
54 119 
54 121 
54 124 
54 126 
54 127 
54 130 
54 132 
54 133 
54 136 
54 138 
54 139 
54 141 
54 143 
55 56 
55 73 
55 75 
55 77 
55 80 
55 81 
55 83 
55 86 
55 87 
55 90 
55 91 
55 94 
55 96 
55 98 
55 100 
55 102 
55 103 
55 105 
55 108 
55 109 
55 112 
55 113 
55 115 
55 118 
55 119 
55 122 
55 124 
55 126 
55 127 
55 129 
55 131 
55 134 
55 136 
55 138 
55 139 
55 141 
55 143 
56 74 
56 76 
56 78 
56 79 
56 82 
56 84 
56 85 
56 88 
56 89 
56 92 
56 93 
56 95 
56 97 
56 99 
56 101 
56 104 
56 106 
56 107 
56 110 
56 111 
56 114 
56 116 
56 117 
56 120 
56 121 
56 123 
56 125 
56 128 
56 130 
56 132 
56 133 
56 135 
56 137 
56 140 
56 142 
56 144 
57 58 
57 74 
57 76 
57 78 
57 80 
57 82 
57 83 
57 85 
57 87 
57 89 
57 91 
57 94 
57 96 
57 97 
57 99 
57 102 
57 104 
57 105 
57 107 
57 109 
57 112 
57 114 
57 116 
57 118 
57 119 
57 122 
57 124 
57 125 
57 127 
57 130 
57 132 
57 134 
57 135 
57 137 
57 139 
57 141 
57 144 
58 73 
58 75 
58 77 
58 79 
58 81 
58 84 
58 86 
58 88 
58 90 
58 92 
58 93 
58 95 
58 98 
58 100 
58 101 
58 103 
58 106 
58 108 
58 110 
58 111 
58 113 
58 115 
58 117 
58 120 
58 121 
58 123 
58 126 
58 128 
58 129 
58 131 
58 133 
58 136 
58 138 
58 140 
58 142 
58 143 
59 60 
59 73 
59 76 
59 77 
59 79 
59 82 
59 84 
59 85 
59 87 
59 90 
59 91 
59 93 
59 96 
59 98 
59 100 
59 101 
59 103 
59 106 
59 107 
59 109 
59 112 
59 114 
59 116 
59 118 
59 119 
59 122 
59 124 
59 126 
59 128 
59 129 
59 132 
59 133 
59 135 
59 137 
59 140 
59 142 
59 143 
60 74 
60 75 
60 78 
60 80 
60 81 
60 83 
60 86 
60 88 
60 89 
60 92 
60 94 
60 95 
60 97 
60 99 
60 102 
60 104 
60 105 
60 108 
60 110 
60 111 
60 113 
60 115 
60 117 
60 120 
60 121 
60 123 
60 125 
60 127 
60 130 
60 131 
60 134 
60 136 
60 138 
60 139 
60 141 
60 144 
61 62 
61 73 
61 76 
61 77 
61 80 
61 81 
61 83 
61 86 
61 88 
61 90 
61 92 
61 94 
61 95 
61 98 
61 99 
61 101 
61 103 
61 105 
61 108 
61 109 
61 111 
61 114 
61 116 
61 117 
61 119 
61 121 
61 124 
61 125 
61 128 
61 129 
61 132 
61 134 
61 135 
61 137 
61 140 
61 141 
61 144 
62 74 
62 75 
62 78 
62 79 
62 82 
62 84 
62 85 
62 87 
62 89 
62 91 
62 93 
62 96 
62 97 
62 100 
62 102 
62 104 
62 106 
62 107 
62 110 
62 112 
62 113 
62 115 
62 118 
62 120 
62 122 
62 123 
62 126 
62 127 
62 130 
62 131 
62 133 
62 136 
62 138 
62 139 
62 142 
62 143 
63 64 
63 73 
63 75 
63 78 
63 80 
63 81 
63 84 
63 86 
63 88 
63 90 
63 91 
63 93 
63 96 
63 97 
63 99 
63 101 
63 104 
63 105 
63 107 
63 110 
63 111 
63 114 
63 116 
63 117 
63 119 
63 122 
63 124 
63 126 
63 127 
63 129 
63 132 
63 133 
63 136 
63 138 
63 139 
63 142 
63 144 
64 74 
64 76 
64 77 
64 79 
64 82 
64 83 
64 85 
64 87 
64 89 
64 92 
64 94 
64 95 
64 98 
64 100 
64 102 
64 103 
64 106 
64 108 
64 109 
64 112 
64 113 
64 115 
64 118 
64 120 
64 121 
64 123 
64 125 
64 128 
64 130 
64 131 
64 134 
64 135 
64 137 
64 140 
64 141 
64 143 
65 66 
65 73 
65 76 
65 78 
65 79 
65 81 
65 83 
65 86 
65 87 
65 90 
65 91 
65 93 
65 96 
65 98 
65 99 
65 101 
65 104 
65 106 
65 107 
65 109 
65 112 
65 114 
65 115 
65 117 
65 120 
65 122 
65 123 
65 125 
65 128 
65 130 
65 131 
65 134 
65 136 
65 138 
65 140 
65 141 
65 144 
66 74 
66 75 
66 77 
66 80 
66 82 
66 84 
66 85 
66 88 
66 89 
66 92 
66 94 
66 95 
66 97 
66 100 
66 102 
66 103 
66 105 
66 108 
66 110 
66 111 
66 113 
66 116 
66 118 
66 119 
66 121 
66 124 
66 126 
66 127 
66 129 
66 132 
66 133 
66 135 
66 137 
66 139 
66 142 
66 143 
67 68 
67 73 
67 76 
67 77 
67 80 
67 82 
67 83 
67 85 
67 88 
67 89 
67 91 
67 94 
67 95 
67 97 
67 100 
67 101 
67 104 
67 106 
67 108 
67 109 
67 111 
67 114 
67 116 
67 117 
67 119 
67 122 
67 123 
67 126 
67 127 
67 130 
67 131 
67 133 
67 136 
67 138 
67 140 
67 141 
67 143 
68 74 
68 75 
68 78 
68 79 
68 81 
68 84 
68 86 
68 87 
68 90 
68 92 
68 93 
68 96 
68 98 
68 99 
68 102 
68 103 
68 105 
68 107 
68 110 
68 112 
68 113 
68 115 
68 118 
68 120 
68 121 
68 124 
68 125 
68 128 
68 129 
68 132 
68 134 
68 135 
68 137 
68 139 
68 142 
68 144 
69 70 
69 73 
69 76 
69 78 
69 79 
69 82 
69 84 
69 86 
69 88 
69 89 
69 92 
69 94 
69 96 
69 98 
69 100 
69 102 
69 103 
69 105 
69 108 
69 109 
69 111 
69 114 
69 116 
69 118 
69 120 
69 122 
69 123 
69 126 
69 128 
69 130 
69 132 
69 134 
69 136 
69 138 
69 139 
69 142 
69 144 
70 74 
70 75 
70 77 
70 80 
70 81 
70 83 
70 85 
70 87 
70 90 
70 91 
70 93 
70 95 
70 97 
70 99 
70 101 
70 104 
70 106 
70 107 
70 110 
70 112 
70 113 
70 115 
70 117 
70 119 
70 121 
70 124 
70 125 
70 127 
70 129 
70 131 
70 133 
70 135 
70 137 
70 140 
70 141 
70 143 
71 72 
71 73 
71 75 
71 77 
71 79 
71 81 
71 84 
71 86 
71 88 
71 89 
71 91 
71 94 
71 95 
71 97 
71 100 
71 102 
71 104 
71 106 
71 107 
71 109 
71 112 
71 114 
71 116 
71 118 
71 120 
71 121 
71 124 
71 125 
71 128 
71 129 
71 131 
71 133 
71 136 
71 137 
71 139 
71 141 
71 144 
72 74 
72 76 
72 78 
72 80 
72 82 
72 83 
72 85 
72 87 
72 90 
72 92 
72 93 
72 96 
72 98 
72 99 
72 101 
72 103 
72 105 
72 108 
72 110 
72 111 
72 113 
72 115 
72 117 
72 119 
72 122 
72 123 
72 126 
72 127 
72 130 
72 132 
72 134 
72 135 
72 138 
72 140 
72 142 
72 143 
73 74 
75 76 
77 78 
79 80 
81 82 
83 84 
85 86 
87 88 
89 90 
91 92 
93 94 
95 96 
97 98 
99 100 
101 102 
103 104 
105 106 
107 108 
109 110 
111 112 
113 114 
115 116 
117 118 
119 120 
121 122 
123 124 
125 126 
127 128 
129 130 
131 132 
133 134 
135 136 
137 138 
139 140 
141 142 
143 144 
